results/refactoring_attempts/res_split_48.smt2
(declare-rel fail ())
(declare-rel inv2 (Int Int Int Int Int Int Int))
(declare-var A Int)
(declare-var B Int)
(declare-var C Int)
(declare-var D Int)
(declare-var E Int)
(declare-var F Int)
(declare-var G Int)
(declare-var H Int)
(declare-var N Int)
(rule (=> (and (= H 0) 
               (= G 0) 
               (> N 0) 
               (<= N 1000) 
               (= (* 4 N) D) 
               (= (* 6 N) C) 
               (= (* 5 N) B) 
               (= (* 10 N) A))
    (inv2 H G D C B A N)))
(rule (let ((a!1 (= F
              (ite (< H B)
                   (ite (>= H D) (+ G 4) (+ G 1))
                   (ite (>= H C) (- G 1) (- G 4))))))
  (=> (and (inv2 H G D C B A N) (= E (+ H 1)) a!1) (inv2 E F D C B A N))))
(rule (=> (and (inv2 H G D C B A N) (= H A) (not (= G 0))) fail))
(query fail)

